&CONTROL
calculation='relax'
verbosity='high'
prefix='graphene_CO2.rx'
tstress=.true.
tprnfor=.true.
nstep= 80
pseudo_dir='./'
outdir='./'
/
&SYSTEM
   ntyp             = 2
   nat              = 21
   ibrav            = 0
   nbnd		    = 60
   ecutwfc	    = 47
   occupations	    = 'smearing'
   degauss	    = 0.001
/
&ELECTRONS
diagonalization='david'
mixing_beta=0.1
/
&IONS
/
&CELL
/

ATOMIC_SPECIES
C 12.011 C.pbe-n-rrkjus_psl.1.0.0.UPF
O 15.999 O.pbe-n-rrkjus_psl.1.0.0.UPF

K_POINTS automatic
5 5 1 0 0 0 

CELL_PARAMETERS angstrom
7.40316000000000 0.00000000000000 0.00000000000000
-3.70158000000000 6.41132462828080 0.00000000000000
0.00000000000000 0.00000000000000 8.68504000000000

ATOMIC_POSITIONS angstrom
C 0.0000000000 0.0000000000 2.1712590621 
C 1.2327040998 0.7117020438 2.1712597553 
C -1.2338594772 2.1371100151 2.1712599884 
C 0.0000000001 2.8508089666 2.1712600696 
C -2.4677181748 4.2742159688 2.1712599884 
C -1.2327070134 4.9859201449 2.1712600696 
C 2.4677213024 -0.0000013556 2.1712599884 
C 3.7015800001 0.7136956264 2.1712603733 
C 1.2338594772 2.1371100151 2.1712599884 
C 2.4688685431 2.8488145009 2.1712603733 
C 0.0000000000 4.2742164189 2.1712596971 
C 1.2327070136 4.9859201449 2.1712600696 
C 4.9354386976 -0.0000013556 2.1712599884 
C 6.1704559004 0.7117020438 2.1712597553 
C 3.7015800000 2.1371082094 2.1712607157 
C 4.9342914571 2.8488145009 2.1712603733 
C 2.4677181748 4.2742159688 2.1712599884 
C 3.7015800001 4.9879205406 2.1712597553 
C 2.5440268763 2.7197762269 3.4232625644 
O 2.5435340374 1.6122156191 3.8264299468 
O 2.5445197152 3.8273368346 3.0200951820 

