&CONTROL
calculation='relax'
verbosity='high'
prefix='graphene33.rx'
tstress=.true.
tprnfor=.true.
pseudo_dir='./'
outdir='./'

/
&SYSTEM
   ntyp             = 1
   nat              = 18
   ibrav            = 0
   nbnd		    = 45
   ecutwfc	    = 47
   occupations	    = 'smearing'
   degauss	    = 0.001
/
&ELECTRONS
diagonalization='david'
mixing_beta=0.1
/
&IONS
/
&CELL
/

ATOMIC_SPECIES
C 12.011 C.pbe-n-rrkjus_psl.1.0.0.UPF

K_POINTS automatic
5 5 1 0 0 0 

CELL_PARAMETERS angstrom
7.40316000000000 0.00000000000000 0.00000000000000
-3.70158000000000 6.41132462828079 0.00000000000000
0.00000000000000 0.00000000000000 8.68504000000000

ATOMIC_POSITIONS angstrom
C 0.0000000000 0.0000000000 2.1712600000 
C 1.2338600001 0.7123694031 2.1712600000 
C -1.2338600000 2.1371082094 2.1712600000 
C 0.0000000001 2.8494776125 2.1712600000 
C -2.4677200000 4.2742164189 2.1712600000 
C -1.2338599999 4.9865858219 2.1712600000 
C 2.4677200000 0.0000000000 2.1712600000 
C 3.7015800001 0.7123694031 2.1712600000 
C 1.2338600000 2.1371082094 2.1712600000 
C 2.4677200001 2.8494776125 2.1712600000 
C 0.0000000000 4.2742164189 2.1712600000 
C 1.2338600001 4.9865858219 2.1712600000 
C 4.9354400000 0.0000000000 2.1712600000 
C 6.1693000001 0.7123694031 2.1712600000 
C 3.7015800000 2.1371082094 2.1712600000 
C 4.9354400001 2.8494776125 2.1712600000 
C 2.4677200000 4.2742164189 2.1712600000 
C 3.7015800001 4.9865858219 2.1712600000 

